Maximize
  obj: 0y1 + y2 + 0y3
Subject To
 C0: y2 + 0.101021y1 <= 8000.000000
 C1: y2 + 0.316404y1 <= 8344.613242
 C2: y2 + 0.582576y1 <= 9196.363336
 C3: y2 + 1.000000y1 <= 11200.000000
 C4: y2 + 3.000000y1 <= 24000.000000
 C5: y1 - .1y3 <= .025
 C6: -y1 + .1y3 <= .025
 C7: -y1 <= 0
 C8: -y2 <= 0
General
 y3
End
